Version identifier: 22.1.0.0 | 2022-03-09 | 1a383f8ce
CPXPARAM_Threads                                 1
CPXPARAM_MIP_Strategy_VariableSelect             3
CPXPARAM_TimeLimit                               599.99994986900003
1 of 1 MIP starts provided solutions.
MIP start 'm1' defined initial solution with objective 251.0000.
Tried aggregator 1 time.
MIP Presolve eliminated 375 rows and 1080 columns.
MIP Presolve modified 4 coefficients.
Reduced MIP has 2517 rows, 3240 columns, and 36900 nonzeros.
Reduced MIP has 3240 binaries, 0 generals, 0 SOSs, and 0 indicators.
Presolve time = 0.03 sec. (21.93 ticks)
Probing time = 0.00 sec. (2.91 ticks)
Tried aggregator 1 time.
Detecting symmetries...
MIP Presolve eliminated 1 rows and 0 columns.
Reduced MIP has 2516 rows, 3240 columns, and 36896 nonzeros.
Reduced MIP has 3240 binaries, 0 generals, 0 SOSs, and 0 indicators.
Presolve time = 0.03 sec. (21.44 ticks)
Probing time = 0.00 sec. (2.91 ticks)
Clique table members: 1434.
MIP emphasis: balance optimality and feasibility.
MIP search method: dynamic search.
Parallel mode: none, using 1 thread.
Root relaxation solution time = 0.04 sec. (35.90 ticks)

        Nodes                                         Cuts/
   Node  Left     Objective  IInf  Best Integer    Best Bound    ItCnt     Gap

*     0+    0                          251.0000     3240.0000              --- 
      0     0      360.0000    61      251.0000      360.0000      918   43.43%
*     0+    0                          360.0000      360.0000             0.00%
      0     0        cutoff            360.0000      360.0000      918    0.00%
Elapsed time = 0.22 sec. (194.95 ticks, tree = 0.01 MB, solutions = 2)

Root node processing (before b&c):
  Real time             =    0.22 sec. (195.12 ticks)
Sequential b&c:
  Real time             =    0.00 sec. (0.00 ticks)
                          ------------
Total (root+branch&cut) =    0.22 sec. (195.12 ticks)
Primal:	360
Dual:	360
Status:	Optimal
Time:	0.24
Sequence:
	5
	0
	9
	5
	9
	5
	0
	5
	9
	5
	9
	5
	0
	5
	9
	5
	4
	0
	5
	9
	5
	0
	4
	5
	9
	5
	4
	0
	5
	9
	5
	0
	5
	4
	1
	9
	9
	9
	0
	9
	5
	9
	3
	0
	4
	5
	9
	5
	4
	9
	5
	9
	5
	4
	11
	0
	5
	9
	5
	9
	5
	4
	9
	5
	9
	5
	9
	9
	9
	5
	9
	5
	9
	9
	5
	9
	5
	9
	5
	9
	5
	9
	5
	9
	9
	9
	9
	9
	9
	5
	9
	9
	9
	9
	9
	9
	9
	9
	9
	4
	4
	9
	4
	9
	5
	2
	5
	9
	9
	9
	9
	9
	9
	4
	4
	9
	9
	4
	4
	9
	9
	9
	9
	9
	9
	9
	11
	4
	9
	9
	9
	9
	11
	9
	5
	9
	5
	9
	9
	5
	9
	4
	9
	4
	9
	4
	4
	9
	9
	9
	9
	9
	9
	1
	9
	1
	9
	1
	9
	5
	9
	5
	0
	4
	5
	0
	4
	5
	9
	0
	5
	4
	11
	0
	4
	5
	0
	4
	5
	0
	5
	9
	0
	5
	9
	0
	4
	5
	0
	4
	5
	0
	4
	4
	0
	5
	9
	0
	4
	9
	0
	4
	1
	4
	1
	4
	0
	5
	4
	0
	4
	9
	0
	4
	9
	9
	0
	9
	5
	9
	0
	4
	5
	9
	1
	0
	9
	4
	0
	4
	4
	0
	4
	4
	0
	5
	4
	9
	3
	0
	4
	4
	10
	0
	9
	5
	0
	9
	5
	9
	0
	5
	9
	9
	5
	0
	9
	5
	9
	5
	9
	5
	0
	5
	4
	0
	1
	4
	0
	9
	5
	9
	0
	5
	9
	0
	5
	9
	0
	9
	5
	0
	5
	4
	1
	0
	5
	4
	0
	5
	9
	0
	5
	4
	0
	9
	5
	0
	1
	9
	0
	4
	1
	0
	5
	4
	0
	5
	4
	9
	5
	9
	9
	1
	9
	1
	9
	9
	9
	9
	1
	9
	5
	0
	1
	4
	4
	1
	9
	1
	0
	4
	9
	4
	1
	0
	5
	4
	3
	4
	4
	9
	5
	0
	4
	5
	9
	5
	4
	1
	0
	5
	9
	1
	4
	4
	0
	5
	4
	0
